(set-option :produce-models true)
(set-logic QF_LRA)
(set-info :notes | Strip-packing problem.|)
(declare-fun x0 () Real)
(declare-fun y0 () Real)
(declare-fun x1 () Real)
(declare-fun y1 () Real)
(declare-fun x2 () Real)
(declare-fun y2 () Real)
(declare-fun x3 () Real)
(declare-fun y3 () Real)
(declare-fun x4 () Real)
(declare-fun y4 () Real)
(declare-fun x5 () Real)
(declare-fun y5 () Real)
(declare-fun x6 () Real)
(declare-fun y6 () Real)
(declare-fun x7 () Real)
(declare-fun y7 () Real)
(declare-fun x8 () Real)
(declare-fun y8 () Real)
(declare-fun z () Real)
(declare-fun c () Real)
(assert (and (= c z) (and (>= x0 0) 
(and (>= y0 0) 
(and (>= x1 0) 
(and (>= y1 0) 
(and (>= x2 0) 
(and (>= y2 0) 
(and (>= x3 0) 
(and (>= y3 0) 
(and (>= x4 0) 
(and (>= y4 0) 
(and (>= x5 0) 
(and (>= y5 0) 
(and (>= x6 0) 
(and (>= y6 0) 
(and (>= x7 0) 
(and (>= y7 0) 
(and (>= x8 0) 
(and (>= y8 0) 
(and (>= z 0) 
(and (>= c 0) 
(and (<= (+ x0 0.215727458) z) 
(and (<= 0.9305003083 y0) 
(and (<= y0 1.0) 
(and (<= x0 (- 3.412043403 0.215727458)) 
(and (>= x0 0) 
(and (<= (+ x1 0.5314622706) z) 
(and (<= 0.8720427758 y1) 
(and (<= y1 1.0) 
(and (<= x1 (- 3.412043403 0.5314622706)) 
(and (>= x1 0) 
(and (<= (+ x2 0.6366138106) z) 
(and (<= 0.8327757909 y2) 
(and (<= y2 1.0) 
(and (<= x2 (- 3.412043403 0.6366138106)) 
(and (>= x2 0) 
(and (<= (+ x3 0.9291910729) z) 
(and (<= 0.5654122463 y3) 
(and (<= y3 1.0) 
(and (<= x3 (- 3.412043403 0.9291910729)) 
(and (>= x3 0) 
(and (<= (+ x4 0.753750229) z) 
(and (<= 0.5543142088 y4) 
(and (<= y4 1.0) 
(and (<= x4 (- 3.412043403 0.753750229)) 
(and (>= x4 0) 
(and (<= (+ x5 0.2718207486) z) 
(and (<= 0.5420550507 y5) 
(and (<= y5 1.0) 
(and (<= x5 (- 3.412043403 0.2718207486)) 
(and (>= x5 0) 
(and (<= (+ x6 0.0734778133) z) 
(and (<= 0.5050821216 y6) 
(and (<= y6 1.0) 
(and (<= x6 (- 3.412043403 0.0734778133)) 
(and (>= x6 0) 
(and (<= (+ x7 0.439564734) z) 
(and (<= 0.2557160343 y7) 
(and (<= y7 1.0) 
(and (<= x7 (- 3.412043403 0.439564734)) 
(and (>= x7 0) 
(and (<= (+ x8 0.7439121829) z) 
(and (<= 0.1385137008 y8) 
(and (<= y8 1.0) 
(and (<= x8 (- 3.412043403 0.7439121829)) 
(and (>= x8 0) 
(and (<= c 3.412043403) 
(and (or (<= (+ x0 0.215727458) x1) (or (<= (+ x1 0.5314622706) x0) (or (>= (- y0 0.9305003083) y1) (or (>= (- y1 0.8720427758) y0))))) 
(and (or (<= (+ x0 0.215727458) x2) (or (<= (+ x2 0.6366138106) x0) (or (>= (- y0 0.9305003083) y2) (or (>= (- y2 0.8327757909) y0))))) 
(and (or (<= (+ x0 0.215727458) x3) (or (<= (+ x3 0.9291910729) x0) (or (>= (- y0 0.9305003083) y3) (or (>= (- y3 0.5654122463) y0))))) 
(and (or (<= (+ x0 0.215727458) x4) (or (<= (+ x4 0.753750229) x0) (or (>= (- y0 0.9305003083) y4) (or (>= (- y4 0.5543142088) y0))))) 
(and (or (<= (+ x0 0.215727458) x5) (or (<= (+ x5 0.2718207486) x0) (or (>= (- y0 0.9305003083) y5) (or (>= (- y5 0.5420550507) y0))))) 
(and (or (<= (+ x0 0.215727458) x6) (or (<= (+ x6 0.0734778133) x0) (or (>= (- y0 0.9305003083) y6) (or (>= (- y6 0.5050821216) y0))))) 
(and (or (<= (+ x0 0.215727458) x7) (or (<= (+ x7 0.439564734) x0) (or (>= (- y0 0.9305003083) y7) (or (>= (- y7 0.2557160343) y0))))) 
(and (or (<= (+ x0 0.215727458) x8) (or (<= (+ x8 0.7439121829) x0) (or (>= (- y0 0.9305003083) y8) (or (>= (- y8 0.1385137008) y0))))) 
(and (or (<= (+ x1 0.5314622706) x2) (or (<= (+ x2 0.6366138106) x1) (or (>= (- y1 0.8720427758) y2) (or (>= (- y2 0.8327757909) y1))))) 
(and (or (<= (+ x1 0.5314622706) x3) (or (<= (+ x3 0.9291910729) x1) (or (>= (- y1 0.8720427758) y3) (or (>= (- y3 0.5654122463) y1))))) 
(and (or (<= (+ x1 0.5314622706) x4) (or (<= (+ x4 0.753750229) x1) (or (>= (- y1 0.8720427758) y4) (or (>= (- y4 0.5543142088) y1))))) 
(and (or (<= (+ x1 0.5314622706) x5) (or (<= (+ x5 0.2718207486) x1) (or (>= (- y1 0.8720427758) y5) (or (>= (- y5 0.5420550507) y1))))) 
(and (or (<= (+ x1 0.5314622706) x6) (or (<= (+ x6 0.0734778133) x1) (or (>= (- y1 0.8720427758) y6) (or (>= (- y6 0.5050821216) y1))))) 
(and (or (<= (+ x1 0.5314622706) x7) (or (<= (+ x7 0.439564734) x1) (or (>= (- y1 0.8720427758) y7) (or (>= (- y7 0.2557160343) y1))))) 
(and (or (<= (+ x1 0.5314622706) x8) (or (<= (+ x8 0.7439121829) x1) (or (>= (- y1 0.8720427758) y8) (or (>= (- y8 0.1385137008) y1))))) 
(and (or (<= (+ x2 0.6366138106) x3) (or (<= (+ x3 0.9291910729) x2) (or (>= (- y2 0.8327757909) y3) (or (>= (- y3 0.5654122463) y2))))) 
(and (or (<= (+ x2 0.6366138106) x4) (or (<= (+ x4 0.753750229) x2) (or (>= (- y2 0.8327757909) y4) (or (>= (- y4 0.5543142088) y2))))) 
(and (or (<= (+ x2 0.6366138106) x5) (or (<= (+ x5 0.2718207486) x2) (or (>= (- y2 0.8327757909) y5) (or (>= (- y5 0.5420550507) y2))))) 
(and (or (<= (+ x2 0.6366138106) x6) (or (<= (+ x6 0.0734778133) x2) (or (>= (- y2 0.8327757909) y6) (or (>= (- y6 0.5050821216) y2))))) 
(and (or (<= (+ x2 0.6366138106) x7) (or (<= (+ x7 0.439564734) x2) (or (>= (- y2 0.8327757909) y7) (or (>= (- y7 0.2557160343) y2))))) 
(and (or (<= (+ x2 0.6366138106) x8) (or (<= (+ x8 0.7439121829) x2) (or (>= (- y2 0.8327757909) y8) (or (>= (- y8 0.1385137008) y2))))) 
(and (or (<= (+ x3 0.9291910729) x4) (or (<= (+ x4 0.753750229) x3) (or (>= (- y3 0.5654122463) y4) (or (>= (- y4 0.5543142088) y3))))) 
(and (or (<= (+ x3 0.9291910729) x5) (or (<= (+ x5 0.2718207486) x3) (or (>= (- y3 0.5654122463) y5) (or (>= (- y5 0.5420550507) y3))))) 
(and (or (<= (+ x3 0.9291910729) x6) (or (<= (+ x6 0.0734778133) x3) (or (>= (- y3 0.5654122463) y6) (or (>= (- y6 0.5050821216) y3))))) 
(and (or (<= (+ x3 0.9291910729) x7) (or (<= (+ x7 0.439564734) x3) (or (>= (- y3 0.5654122463) y7) (or (>= (- y7 0.2557160343) y3))))) 
(and (or (<= (+ x3 0.9291910729) x8) (or (<= (+ x8 0.7439121829) x3) (or (>= (- y3 0.5654122463) y8) (or (>= (- y8 0.1385137008) y3))))) 
(and (or (<= (+ x4 0.753750229) x5) (or (<= (+ x5 0.2718207486) x4) (or (>= (- y4 0.5543142088) y5) (or (>= (- y5 0.5420550507) y4))))) 
(and (or (<= (+ x4 0.753750229) x6) (or (<= (+ x6 0.0734778133) x4) (or (>= (- y4 0.5543142088) y6) (or (>= (- y6 0.5050821216) y4))))) 
(and (or (<= (+ x4 0.753750229) x7) (or (<= (+ x7 0.439564734) x4) (or (>= (- y4 0.5543142088) y7) (or (>= (- y7 0.2557160343) y4))))) 
(and (or (<= (+ x4 0.753750229) x8) (or (<= (+ x8 0.7439121829) x4) (or (>= (- y4 0.5543142088) y8) (or (>= (- y8 0.1385137008) y4))))) 
(and (or (<= (+ x5 0.2718207486) x6) (or (<= (+ x6 0.0734778133) x5) (or (>= (- y5 0.5420550507) y6) (or (>= (- y6 0.5050821216) y5))))) 
(and (or (<= (+ x5 0.2718207486) x7) (or (<= (+ x7 0.439564734) x5) (or (>= (- y5 0.5420550507) y7) (or (>= (- y7 0.2557160343) y5))))) 
(and (or (<= (+ x5 0.2718207486) x8) (or (<= (+ x8 0.7439121829) x5) (or (>= (- y5 0.5420550507) y8) (or (>= (- y8 0.1385137008) y5))))) 
(and (or (<= (+ x6 0.0734778133) x7) (or (<= (+ x7 0.439564734) x6) (or (>= (- y6 0.5050821216) y7) (or (>= (- y7 0.2557160343) y6))))) 
(and (or (<= (+ x6 0.0734778133) x8) (or (<= (+ x8 0.7439121829) x6) (or (>= (- y6 0.5050821216) y8) (or (>= (- y8 0.1385137008) y6))))) 
(and (or (<= (+ x7 0.439564734) x8) (or (<= (+ x8 0.7439121829) x7) (or (>= (- y7 0.2557160343) y8) (or (>= (- y8 0.1385137008) y7))))) ))))))))))))))))))))))))))))))))))))))))))))))))))))))))))))))))))))))))))))))))))))))))))))))))))))))))
(minimize c)
(check-sat)
(get-objectives)
(exit)
